multiobj/instances/uniform/Ter.6.2.0.80.2.in
6 2
0 555 650 868 523 851 
555 0 135 334 321 333 
650 135 0 169 904 551 
868 334 169 0 490 933 
523 321 904 490 0 256 
851 333 551 933 256 0 
0 672 12 517 937 892 
672 0 40 227 392 31 
12 40 0 264 154 993 
517 227 264 0 949 420 
937 392 154 949 0 118 
892 31 993 420 118 0 
0 623 148 685 885 756 
623 0 73 190 533 174 
148 73 0 449 144 846 
685 190 449 0 932 357 
885 533 144 932 0 163 
756 174 846 357 163 0 
