multiobj/solutions/Ter.6.2.0.80.2.out
2 2
1 0 3 5 4 2 
4988028 5682924 
1 0 4 3 2 5 
5224402 5676146 
